c 116_4_checker_5cl.cnf
c
c field = 116
c formula set type = 4_checker_5cl
c
p cnf 5 6
232 
234 
236 
238 
-228 
233 
235 
237 
239 
-229 
262 
294 
326 
358 
-198 
263 
295 
327 
359 
-199 
118 
146 
174 
202 
-258 
119 
147 
175 
203 
-259 
